<number of tasks>
30
<number of stations>
8
<task times>
1 8
2 7
3 19
4 10
5 2
6 6
7 14
8 10
9 1
10 4
11 14
12 15
13 5
14 12
15 9
16 10
17 2
18 10
19 18
20 16
21 21
22 14
23 16
24 7
25 17
26 9
27 25
28 7
29 14
30 2
<precedence relations>
1,4
1,5
2,11
2,12
3,16
3,17
4,7
5,6
6,7
7,8
8,9
9,26
10,24
12,13
13,14
14,15
14,20
15,22
16,20
17,18
18,19
20,21
20,24
21,22
22,23
23,27
24,25
25,26
26,27
27,28
27,29
29,30
<end>